number_of_stages = 2;
stage2machineCount = [3,3];
stage2machineCountMax = [6,6];
number_of_characteristics = 1;
stage2char = array2d(1..number_of_stages,1..number_of_characteristics,[true,true]);
number_of_tasks = 10;
task2succtask = array2d(1..number_of_tasks,1..number_of_tasks,[false,false,false,false,false,false,false,false,false,false,false,false,false,false,false,false,false,false,false,false,false,false,false,false,false,false,false,false,false,false,false,false,false,false,false,false,false,false,false,false,false,false,false,false,false,false,false,false,false,false,false,false,false,false,false,false,false,false,false,false,false,false,false,false,false,false,false,false,false,false,false,false,false,false,false,false,false,false,false,false,false,false,false,false,false,false,false,false,false,false,false,false,false,false,false,false,false,false,false,false]);
task2char = array2d(1..number_of_tasks,1..number_of_characteristics,[true,true,true,true,true,true,true,true,true,true]);
